c --- [ banner ] -------------------------------------------------------------
c 
c CaDiCaL Radically Simplified CDCL SAT Solver
c Copyright (c) 2016-2021 A. Biere, M. Fleury, N. Froleyks
c 
c Version 1.5.2 ca9bff05c11bde5eae4912f9932871d1527e61d8
c g++ (GCC) 9.3.0 -Wall -Wextra -O3 -DNDEBUG
c Sun May 1 02:23:23 EDT 2022 Linux gra-login1 3.10.0-1160.59.1.el7.x86_64 x86_64
c 
c --- [ limit ] --------------------------------------------------------------
c 
c setting conflict limit to 200000 conflicts (due to '200000')
c 
c --- [ parsing input ] ------------------------------------------------------
c 
c reading DIMACS file from '12.cubes615.adj'
c opening file to read '12.cubes615.adj'
c found 'p cnf 5320 924210' header
c parsed 924210 clauses in 8.68 seconds process time
c closing file '12.cubes615.adj'
c after reading 686668115 bytes 654.9 MB
c 
c --- [ options ] ------------------------------------------------------------
c 
c all options are set to their default value
c 
c --- [ solving ] ------------------------------------------------------------
c 
c time measured in process time since initialization
c 
c  seconds   reductions  redundant  irredundant
c          MB    restarts       trail      variables
c           level   conflicts       glue        remaining
c 
c *  8.68 689  0 0   0    0    0  0% 0 923580 3951 74%
c {  9.14 712  0 0   0    0    0  0% 0 923580 3951 74%
c i 10.05 740 72 0   3   67   58 52% 14 923580 3950 74%
c i 10.06 740 71 0   4   68   58 52% 14 923580 3938 74%
c i 10.06 740 69 0   5   74   59 53% 14 923580 3937 74%
c i 10.30 743 59 0  13  106   79 52% 16 923580 3936 74%
c i 10.30 743 59 0  13  107   79 52% 16 923580 3935 74%
c i 10.35 744 58 0  15  115   86 53% 17 923580 3934 74%
c i 10.36 744 58 0  16  116   86 53% 17 923580 3933 74%
c i 10.38 744 57 0  17  120   88 53% 17 923580 3932 74%
c i 10.43 745 56 0  19  133  100 53% 20 923580 3931 74%
c i 10.43 745 56 0  20  135  101 53% 20 923580 3930 74%
c i 10.57 747 53 0  30  175  136 53% 23 923580 3929 74%
c i 10.58 747 53 0  30  176  136 53% 23 923580 3928 74%
c i 10.75 748 48 0  38  238  182 52% 22 923580 3927 74%
c i 10.84 748 46 0  40  296  234 54% 23 923580 3926 74%
c i 10.86 748 46 0  41  297  234 54% 23 923580 3925 74%
c i 10.86 748 45 0  41  298  234 54% 23 923580 3924 74%
c i 10.86 748 45 0  41  299  234 53% 23 923580 3923 74%
c i 10.86 748 45 0  41  300  234 53% 23 923580 3922 74%
c 
c  seconds   reductions  redundant   irredundant
c          MB    restarts       trail       variables
c           level   conflicts       glue         remaining
c 
c - 12.55 727 45 1  41  300  234 53% 23 144440 3922 74%
c i 12.59 727 45 1  41  301  234 53% 23 144440 3921 74%
c i 12.64 727 45 1  42  316  246 53% 23 144440 3920 74%
c i 12.65 727 44 1  42  320  248 53% 23 144440 3919 74%
c i 12.66 727 44 1  42  323  250 53% 23 144440 3918 74%
c i 12.66 727 44 1  42  324  250 53% 22 144440 3917 74%
c i 12.71 727 44 1  42  334  257 53% 22 144440 3916 74%
c i 12.73 727 44 1  42  339  261 52% 22 144440 3915 74%
c i 12.73 727 44 1  42  342  262 52% 22 144440 3914 74%
c i 12.76 727 43 1  42  357  275 52% 21 144440 3913 74%
c i 12.86 727 41 1  42  400  307 52% 20 144440 3912 74%
c i 12.88 727 41 1  42  405  311 52% 20 144440 3911 74%
c i 12.90 727 41 1  42  422  323 52% 20 144440 3910 73%
c i 12.90 727 41 1  42  427  327 51% 20 144440 3909 73%
c i 12.92 727 42 1  42  443  342 51% 20 144440 3908 73%
c i 12.94 727 43 1  43  457  354 52% 20 144440 3907 73%
c i 13.05 727 44 1  56  505  400 51% 21 144440 3906 73%
c i 13.05 727 44 1  56  506  400 51% 21 144440 3905 73%
c i 13.41 727 51 1  99  680  541 51% 26 144440 3904 73%
c i 13.52 726 51 1 111  749  595 51% 27 144440 3903 73%
c 
c  seconds   reductions  redundant   irredundant
c          MB    restarts       trail       variables
c           level   conflicts       glue         remaining
c 
c i 13.53 726 51 1 111  760  603 51% 27 144440 3902 73%
c i 13.53 727 51 1 111  762  604 51% 27 144440 3901 73%
c i 13.55 726 50 1 111  789  627 51% 26 144440 3900 73%
c i 13.56 726 50 1 111  793  630 51% 26 144440 3899 73%
c i 13.57 726 50 1 111  813  648 51% 26 144440 3898 73%
c i 13.59 727 50 1 113  837  669 52% 27 144440 3897 73%
c i 13.60 727 50 1 113  840  671 52% 27 144440 3896 73%
c i 13.60 727 50 1 113  847  674 52% 26 144440 3895 73%
c i 13.64 726 50 1 115  879  690 51% 27 144440 3894 73%
c - 13.89 736 47 2 115  997  665 52% 26 144356 3894 73%
c } 13.91 736 47 2 115 1001  669 52% 26 144356 3894 73%
c [ 13.91 736  0 2 115 1001  669  0% 0 144356 3894 73%
c O 13.91 736  2 2 115 1002  670 32% 1 144356 3894 73%
c i 13.91 736  1 2 115 1003  670 32% 0 144356 3873 73%
c i 13.92 736  2 2 115 1008  673 32% 1 144356 3830 72%
c i 13.99 736 21 2 115 1145  769 54% 17 144356 3829 72%
c i 13.99 736 21 2 115 1165  780 55% 17 144356 3828 72%
c i 14.06 736 20 2 115 1413  933 56% 16 144356 3827 72%
c i 14.07 736 20 2 115 1437  942 55% 17 144356 3826 72%
c - 14.37 727 20 3 115 2040  992 56% 17 143520 3826 72%
c 
c  seconds   reductions  redundant   irredundant
c          MB    restarts       trail       variables
c           level   conflicts       glue         remaining
c 
c i 14.51 727 20 3 116 2221 1114 38% 17 143520 3825 72%
c i 14.54 727 20 3 116 2290 1158 37% 17 143520 3824 72%
c i 14.62 727 22 3 116 2590 1384 38% 18 143520 3823 72%
c i 14.64 727 22 3 116 2681 1448 38% 18 143520 3822 72%
c ] 14.70 727 22 3 116 3001 1652 38% 18 143520 3822 72%
c { 14.70 727 47 3 116 3001 1652 72% 26 143520 3822 72%
c F 14.70 727 47 3 116 3006 1656 72% 26 143520 3822 72%
c i 14.74 727 45 3 116 3064 1692 70% 25 143520 3821 72%
c i 14.81 727 39 3 116 3299 1864 64% 22 143520 3820 72%
c - 14.95 678 38 4 116 3430 1430 61% 22 143502 3820 72%
c i 15.27 678 32 4 128 4217 1915 53% 19 143502 3819 72%
c i 15.45 678 33 4 155 4351 2019 52% 20 143502 3818 72%
c 2 15.88 678 31 4 182 5002 4293 49% 19 143404 3798 71%
c p 17.19 678 31 4 182 5002 9462 49% 19 143404 3684 69%
c d 17.37 678 31 4 182 5002 9023 49% 19 118560 3681 69%
c d 17.43 678 31 4 182 5002 9023 49% 19 118558 3680 69%
c - 17.61 679 30 5 182 5169 2011 49% 19 118558 3680 69%
c # 17.88 679 27 5 183 6007 2537 46% 18 118558 3680 69%
c } 18.55 679 27 5 247 7003 3294 44% 18 118558 3680 69%
c [ 18.55 679 22 5 247 7003 3294 38% 18 118558 3680 69%
c 
c  seconds   reductions  redundant   irredundant
c          MB    restarts       trail       variables
c           level   conflicts       glue         remaining
c 
c - 18.60 679 22 6 248 7104 2350 39% 18 118558 3680 69%
c - 19.11 679 22 7 249 9359 2679 38% 18 118558 3680 69%
c I 19.23 679 22 7 249 10009 3172 39% 18 118558 3680 69%
c - 20.04 679 22 8 251 11937 3002 38% 18 118558 3680 69%
c - 21.09 679 20 9 252 14836 3241 37% 17 118558 3680 69%
c ] 21.15 679 20 9 252 15003 3367 37% 17 118558 3680 69%
c { 21.15 679 27 9 252 15003 3367 44% 18 118558 3680 69%
c 2 21.18 679 27 9 252 15003 5232 44% 18 118549 3680 69%
c p 22.45 679 27 9 252 15003 10634 44% 18 118549 3655 69%
c d 22.57 679 27 9 252 15003 10237 44% 18 118293 3652 69%
c B 22.61 679 28 9 252 15012 10246 44% 18 118293 3652 69%
c s 23.11 679 28 9 326 15739 10490 43% 18 116317 3652 69%
c v 24.00 679 28 9 326 15739 10490 43% 18 116215 3652 69%
c w 24.06 679 28 9 326 15739 10486 43% 18 116215 3652 69%
c t 24.06 679 28 9 326 15739 10466 43% 18 116162 3652 69%
c e 24.31 680 28 9 326 15739 5089 43% 18 110598 712 13%
c s 24.40 680 28 9 326 15739 5089 43% 18 110025 712 13%
c - 25.30 680 24 10 345 18059 4140 70% 17 110025 712 13%
c W 26.48 680 23 10 488 21013 6218 70% 16 110025 712 13%
c - 26.96 679 24 11 567 21495 4557 69% 17 110025 712 13%
c 
c  seconds   reductions    redundant   irredundant
c          MB     restarts        trail       variables
c           level     conflicts       glue        remaining
c 
c - 28.63 680 24 12 807 25245 4859 68% 17 110025 712 13%
c F 29.41 679 23 12 829 28014 6795 69% 16 110025 712 13%
c - 29.98 680 22 13 869 29308 5295 68% 16 110025 712 13%
c 2 30.36 680 22 13 928 30004 6351 69% 16 110024 712 13%
c p 30.85 680 22 13 928 30004 8347 69% 16 110024 698 13%
c } 31.26 680 22 13 979 31009 9065 69% 16 110024 698 13%
c [ 31.26 680 20 13 979 31009 9065 201% 17 110024 698 13%
c - 31.95 680 22 14 980 33682 6250 170% 18 109876 698 13%
c ] 32.03 680 22 14 980 33880 6386 168% 18 109876 698 13%
c 1 32.03 680 22 14 980 33880 6386 168% 18 109876 698 13%
c 
c --- [ writing output ] -----------------------------------------------------
c 
c writing simplified CNF to DIMACS file 'simp/12.cubes615.adj.simp1'
c * 32.03 680 22 14 980 33880 6386 168% 18 109876 698 13%
c opening file to write 'simp/12.cubes615.adj.simp1'
c writing 'p cnf 5320 109876' header
c closing file 'simp/12.cubes615.adj.simp1'
c after writing 35761680 bytes 34.1 MB
c wrote 109876 clauses in 0.29 seconds process time
c 
c --- [ writing extension ] --------------------------------------------------
c 
c writing extension stack to 'simp/12.cubes615.adj.ext1'
c opening file to write 'simp/12.cubes615.adj.ext1'
c closing file 'simp/12.cubes615.adj.ext1'
c after writing 172351 bytes 0.2 MB
c wrote 7815 witnesses in 0.00 seconds process time
c 
c --- [ result ] -------------------------------------------------------------
c 
s SATISFIABLE
c 
c --- [ run-time profiling ] -------------------------------------------------
c 
c process time taken by individual solving procedures
c (percentage relative to process time for solving)
c 
c        18.06   77.32% search
c        13.37   57.25% unstable
c         8.68   37.17% parse
c         5.29   22.68% simplify
c         4.17   17.85% stable
c         3.08   13.18% probe
c         0.94    4.02% vivify
c         0.47    2.01% elim
c         0.46    1.97% lucky
c         0.17    0.73% subsume
c         0.06    0.25% walk
c         0.05    0.23% ternary
c   =================================
c        23.35   72.23% solve
c 
c last line shows process time for solving
c (percentage relative to total process time)
c 
c --- [ statistics ] ---------------------------------------------------------
c 
c chronological:              6651        19.63 %  of conflicts
c conflicts:                 33880      1450.93    per second
c decisions:                 78329      3354.47    per second
c eliminated:                 2940        55.26 %  of all variables
c fixed:                      1666        31.32 %  of all variables
c learned:                   33130        97.79 %  per conflict
c learned_lits:            4800700       100.00 %  learned literals
c minimized:                     0         0.00 %  learned literals
c shrunken:                2846914        59.30 %  learned literals
c minishrunken:             393096         8.19 %  learned literals
c propagations:            4852721         0.21 M  per second
c reduced:                   16350        48.26 %  per conflict
c rephased:                      7      4840.00    interval
c restarts:                    980        34.57    interval
c stabilizing:                   3        37.99 %  of conflicts
c substituted:                  16         0.30 %  of all variables
c subsumed:                  13401         0.67 %  of all clauses
c strengthened:               5215         0.26 %  of all clauses
c ternary:                    4082         0.49 %  of resolved
c vivified:                    131         0.01 %  of all clauses
c walked:                        1     33880.00    interval
c weakened:                   6149         2.94    average size
c 
c seconds are measured in process time for solving
c 
c --- [ resources ] ----------------------------------------------------------
c 
c total process time since initialization:        32.33    seconds
c total real time since initialization:           32.42    seconds
c maximum resident set size of process:          785.46    MB
c 
c --- [ shutting down ] ------------------------------------------------------
c 
c exit 10
WARNING! DIMACS header mismatch: wrong number of variables.
============================[ Problem Statistics ]=============================
|                                                                             |
|  Number of variables:          2779                                         |
|  Number of clauses:          109876                                         |
|  Parse time:                   0.50 s                                       |
|  Simplification time:          0.01 s                                       |
|                                                                             |
============================[ Search Statistics ]====================================================
| Conflicts |          ORIGINAL         |          LEARNT          | Num Sols |      SUBGRAPHS      |
|           |    Vars  Clauses Literals |    Limit  Clauses Lit/Cl |          | Canonical Noncanon. |
=====================================================================================================
|       125 |    2687   109901  7985040 |     2000      125     58 |        0 |        20        25 |
|       281 |    2687   109907  7985250 |     2000      281     62 |        0 |        39        31 |
|       594 |    2687   109995  7986619 |     2000      594     53 |        0 |        83       119 |
|      1104 |    2687   110168  7989187 |     2000     1104     53 |        0 |        98       292 |
|      1647 |    2687   110205  7989847 |     2000     1647     62 |        0 |       111       329 |
|      2445 |    2687   110244  7990650 |     3607     1452     43 |        0 |       128       368 |
|      3594 |    2687   110254  7990826 |     3607     2601     60 |        0 |       147       378 |
|      5535 |    2687   110487  7994836 |     5005     2740     44 |        0 |       230       611 |
|      8368 |    2687   110758  7999389 |     6305     3073     35 |        0 |       273       882 |
|     12989 |    2687   111535  8011721 |     7557     4546     34 |        0 |       432      1659 |
|     18894 |    2687   111674  8014001 |     8780     6674     45 |        0 |       538      1798 |
|     28196 |    2687   112327  8023270 |    11199     6595     35 |        0 |       751      2451 |
|     41919 |    2687   113076  8035118 |    13615     8534     39 |        0 |       983      3200 |
|     61890 |    2687   113586  8042681 |    16010    14300     49 |        0 |      1168      3710 |
|     92306 |    2687   114810  8058477 |    19603    18909     58 |        0 |      1449      4934 |
|    138200 |    2687   116915  8086401 |    24411    22011     44 |        0 |      1939      7039 |
|    206098 |    2687   119129  8115213 |    30411    22909     41 |        0 |      2685      9253 |
|    309733 |    2664    96585  6777011 |    37615    17597     40 |        0 |      3450     14362 |
=====================================================================================================
Number of solutions   : 0
Canonical subgraphs   : 3848           (59 /sec)
          order  3    : 1              (166667 /sec)
          order  4    : 1              (500000 /sec)
          order  5    : 1              (200000 /sec)
          order  6    : 1              (52632 /sec)
          order  7    : 2              (10256 /sec)
          order  8    : 4              (2070 /sec)
          order  9    : 10             (437 /sec)
          order 10    : 36             (237 /sec)
          order 11    : 140            (157 /sec)
          order 12    : 744            (96 /sec)
          order 13    : 1067           (68 /sec)
          order 14    : 1130           (50 /sec)
          order 15    : 497            (42 /sec)
          order 16    : 140            (34 /sec)
          order 17    : 50             (33 /sec)
          order 18    : 20             (33 /sec)
          order 19    : 2              (33 /sec)
          order 20    : 2              (31 /sec)
          order 21    : 0              (-nan /sec)
Noncanonical subgraphs: 15697          (1919 /sec)
          order  3    : 0              (-nan /sec)
          order  4    : 0              (-nan /sec)
          order  5    : 0              (-nan /sec)
          order  6    : 0              (-nan /sec)
          order  7    : 0              (-nan /sec)
          order  8    : 0              (-nan /sec)
          order  9    : 0              (-nan /sec)
          order 10    : 0              (-nan /sec)
          order 11    : 0              (-nan /sec)
          order 12    : 0              (-nan /sec)
          order 13    : 10872          (3189 /sec)
          order 14    : 3705           (2863 /sec)
          order 15    : 1083           (338 /sec)
          order 16    : 35             (170 /sec)
          order 17    : 0              (-nan /sec)
          order 18    : 0              (-nan /sec)
          order 19    : 0              (-nan /sec)
          order 20    : 0              (-nan /sec)
Canonicity checking   : 65.3985 s
Noncanonicity checking: 8.18148 s
Total canonicity time : 73.58 s
database reductions   : 32
restarts              : 893
conflicts             : 375734         (2593 /sec)
decisions             : 502314         (0.00 % random) (3467 /sec)
propagations          : 16142562       (111415 /sec)
conflict literals     : 28661756       (52.73 % deleted)
actual reward         : 0.279828
Memory used           : 114.00 MB
CPU time              : 144.887 s

UNSATISFIABLE
